Version identifier: 20.1.0.0 | 2020-11-10 | 9bedb6d68
Tried aggregator 2 times.
MIP Presolve eliminated 1833 rows and 955 columns.
MIP Presolve modified 4598 coefficients.
Aggregator did 191 substitutions.
Reduced MIP has 2785 rows, 2169 columns, and 9146 nonzeros.
Reduced MIP has 420 binaries, 1749 generals, 0 SOSs, and 0 indicators.
Presolve time = 0.03 sec. (10.75 ticks)
Found incumbent of value 2778.000000 after 0.05 sec. (21.66 ticks)
Probing fixed 60 vars, tightened 536 bounds.
Probing time = 0.00 sec. (2.02 ticks)
Tried aggregator 1 time.
Detecting symmetries...
MIP Presolve eliminated 1170 rows and 60 columns.
MIP Presolve modified 163 coefficients.
Reduced MIP has 1615 rows, 2109 columns, and 5276 nonzeros.
Reduced MIP has 642 binaries, 1467 generals, 0 SOSs, and 0 indicators.
Presolve time = 0.02 sec. (6.08 ticks)
Probing time = 0.00 sec. (0.49 ticks)
Clique table members: 125.
MIP emphasis: balance optimality and feasibility.
MIP search method: dynamic search.
Parallel mode: deterministic, using up to 24 threads.
Root relaxation solution time = 0.01 sec. (4.25 ticks)

        Nodes                                         Cuts/
   Node  Left     Objective  IInf  Best Integer    Best Bound    ItCnt     Gap

*     0+    0                         2778.0000        0.0000           100.00%
      0     0        0.0000    78     2778.0000        0.0000      416  100.00%
*     0+    0                           16.0000        0.0000           100.00%
      0     0        0.0000    96       16.0000     Cuts: 261      611  100.00%
*     0+    0                            9.0000        0.0000           100.00%
      0     0        0.0000    95        9.0000      Cuts: 91      779   66.67%
*     0+    0                            7.0000        3.0000            57.14%
      0     0        cutoff              7.0000        7.0000      779    0.00%
Elapsed time = 0.93 sec. (185.33 ticks, tree = 0.01 MB, solutions = 4)

Implied bound cuts applied:  96
Flow cuts applied:  3
Mixed integer rounding cuts applied:  4
Zero-half cuts applied:  72
Lift and project cuts applied:  15
Gomory fractional cuts applied:  39

Root node processing (before b&c):
  Real time             =    0.93 sec. (185.53 ticks)
Parallel b&c, 24 threads:
  Real time             =    0.00 sec. (0.00 ticks)
  Sync time (average)   =    0.00 sec.
  Wait time (average)   =    0.00 sec.
                          ------------
Total (root+branch&cut) =    0.93 sec. (185.53 ticks)

Solution status = Optimal
Solution LB = 7
Solution UB = 7
Runtime = 0.931776 seconds
	Command being timed: "/home/min/git_repos/CS598MEBProject/CNT-ILP/build/cnt -s 2 ./output/k8_n30/simC_c1_k8_n30_u1_s2_del02.input-left.cnp"
	User time (seconds): 13.04
	System time (seconds): 0.12
	Percent of CPU this job got: 1331%
	Elapsed (wall clock) time (h:mm:ss or m:ss): 0:00.98
	Average shared text size (kbytes): 0
	Average unshared data size (kbytes): 0
	Average stack size (kbytes): 0
	Average total size (kbytes): 0
	Maximum resident set size (kbytes): 136248
	Average resident set size (kbytes): 0
	Major (requiring I/O) page faults: 0
	Minor (reclaiming a frame) page faults: 32015
	Voluntary context switches: 5265
	Involuntary context switches: 1737
	Swaps: 0
	File system inputs: 264
	File system outputs: 24
	Socket messages sent: 0
	Socket messages received: 0
	Signals delivered: 0
	Page size (bytes): 4096
	Exit status: 0
